
Value of objective function: -1

Actual values of the variables:
x1                   0
x2                   1
x3                   1
x4                   1
x5                   1
x6                   0

Actual values of the constraints:
r_1                  0
r_2                  -1
r_3                  0
r_4                  0
r_5                  0
r_6                  2
